24823
0 0 0 1 1 1 0 0 1 0 1 0 1 0 0 0 0 0 1 1 0 1 0 0 1 1 0 1 1 0
18 19 21 27 21 12 21 27 18 28 4 28 8 3 28 18 3 10 27 27 18 24 5 24 10 18 27 19 4 21 19 19 4 21 27 12 8 8 24 21 18 8 12 4 8 19 3 21 19 10 24 24 24 21 8 12 25 8 18 25 4 24 18 8 3 25 5 19 28 25 18 12 19 8 5 10 10 5 8 24 10 5 8 25 4 8 19 5 27 25 28 19 25 25 5 3 28 12 10 28 28 21 25 18 4 24 4 24 27 3 19 4 27 12 12 8 28 25 28 8 8 25 28 19 4 21 21 12 19 28 28 24 25 10 5 8 3 3 28 10 12 27 12 25 25 5 24 21 27 25 24 28 10 28 8 28 5 21 3 3 3 27 10 24 5 27 5 4 3 21 5 8 19 10 4 5 24 10 4 10 5 21 21 19 12 8 28 10 27 21 21 21 19 4 25 12 25 21 10 19
